
  22   10
  10   10   10   10   10   10   10   10   10   10

   0   0   0   0   0   0   0   0   0   0   0   2 2 5 
   2   0   0   0   0   0   0  10   0   0   0   1 3 
   7   0   0   0   0   0  10   0   0   0   0   2 11 4 
   2   0  10   0   0   0   0   0   0   0   0   1 6 
   6   0   0   0   0   0   0   0   0   0  10   1 6 
   9   0   0   0   0  10   0   0   0   0   0   1 7 
   8   0  10   0   0   0   0   0   0   0   0   1 8 
   6   0  10   0   0   0   0   0   0   0   0   1 9 
   6   0   0   0   0   0   0  10   0   0   0   1 10 
   7   0   0  10   0   0   0   0   0   0   0   1 12 
   1   0   0   0  10   0   0   0   0   0   0   1 12 
   7   0   0   0   0   0   0   0  10   0   0   1 13 
   7  10   0   0   0   0   0   0   0   0   0   1 14 
   1  10   0   0   0   0   0   0   0   0   0   1 15 
   3   0   0   0   0  10   0   0   0   0   0   1 16 
   3   0   0  10   0   0   0   0   0   0   0   1 17 
   8   0   0  10   0   0   0   0   0   0   0   1 18 
   7  10   0   0   0   0   0   0   0   0   0   1 19 
   6   0  10   0   0   0   0   0   0   0   0   1 20 
   2   0  10   0   0   0   0   0   0   0   0   1 21 
  10   0   0   0   0   0   0   0   0  10   0   1 22
   0   0   0   0   0   0   0   0   0   0   0   0 
